p tw 44 74
5 20
10 20
1 9
1 10
1 14
6 16
6 10
6 11
9 16
9 14
2 20
2 18
2 3
2 11
12 16
12 18
12 19
8 17
8 9
8 15
4 12
4 7
4 17
4 16
4 15
42 44
42 43
24 35
24 40
37 38
37 43
25 30
25 35
25 27
25 26
25 31
25 36
29 34
21 30
21 33
21 35
21 34
21 26
21 37
28 39
28 37
28 31
28 32
41 42
41 44
41 43
17 41
34 36
34 38
22 40
7 11
39 40
3 13
3 16
3 43
35 37
31 42
11 20
11 44
11 15
43 44
26 38
23 37
23 32
23 29
23 44
23 41
30 39
19 42
